set FRANJA := s1 s2 s3;
set AUTOBUS := a1 a2 a3 a4 a5;

# Costes por km y por pasajero (constantes)
param k_d := 2.5;   # euros por km (ejemplo)
param k_p := 10.0;  # euros por pasajero (ejemplo)

# Distancias d_i para cada autobus a1..am (en km)
param DIST :=
a1  120
a2   40
a3  200
a4   75
a5  150
;

# Pasajeros p_i para cada autobus
param P :=
a1  30
a2  12
a3 100
a4  45
a5  20
;
